(declare-const X String)
; SI\|Server\|\s+OSSProxy\x5Chome\/lordofsearch%3fAuthorization\x3a
(assert (str.in_re X (re.++ (str.to_re "SI|Server|\u{13}") (re.+ (re.union (str.to_re " ") (str.to_re "\u{9}") (str.to_re "\u{a}") (str.to_re "\u{c}") (str.to_re "\u{d}"))) (str.to_re "OSSProxy\u{5c}home/lordofsearch%3fAuthorization:\u{a}"))))
; www\s+X-Mailer\x3aSpyBuddyUser-Agent\x3A
(assert (str.in_re X (re.++ (str.to_re "www") (re.+ (re.union (str.to_re " ") (str.to_re "\u{9}") (str.to_re "\u{a}") (str.to_re "\u{c}") (str.to_re "\u{d}"))) (str.to_re "X-Mailer:\u{13}SpyBuddyUser-Agent:\u{a}"))))
; /\/SUS\d+O\d+\.jsp\?[a-z0-9=\x2b\x2f]{20}/iU
(assert (str.in_re X (re.++ (str.to_re "//SUS") (re.+ (re.range "0" "9")) (str.to_re "O") (re.+ (re.range "0" "9")) (str.to_re ".jsp?") ((_ re.loop 20 20) (re.union (re.range "a" "z") (re.range "0" "9") (str.to_re "=") (str.to_re "+") (str.to_re "/"))) (str.to_re "/iU\u{a}"))))
; /\.addAnnot\s*\x28[^\x29]*?points\s*\x3a\s*0/i
(assert (not (str.in_re X (re.++ (str.to_re "/.addAnnot") (re.* (re.union (str.to_re " ") (str.to_re "\u{9}") (str.to_re "\u{a}") (str.to_re "\u{c}") (str.to_re "\u{d}"))) (str.to_re "(") (re.* (re.comp (str.to_re ")"))) (str.to_re "points") (re.* (re.union (str.to_re " ") (str.to_re "\u{9}") (str.to_re "\u{a}") (str.to_re "\u{c}") (str.to_re "\u{d}"))) (str.to_re ":") (re.* (re.union (str.to_re " ") (str.to_re "\u{9}") (str.to_re "\u{a}") (str.to_re "\u{c}") (str.to_re "\u{d}"))) (str.to_re "0/i\u{a}")))))
; /\xb6\xb6\xff\xff\xff\xff$/
(assert (not (str.in_re X (str.to_re "/\u{b6}\u{b6}\u{ff}\u{ff}\u{ff}\u{ff}/\u{a}"))))
(check-sat)

(exit)
